NAME : XML100_3355_24
DIMENSION : 101
NB_CLUSTERS : 3
CLUSTERING_ALG : KMedoids
CLUSTERING_PARAMS : k(2)
CLUSTERS
1 0
2 1 3 6 7 8 10 11 12 14 17 19 20 21 22 23 26 27 30 32 36 39 40 41 42 43 45 49 50 51 52 59 61 64 66 68 69 70 72 74 75 77 79 81 84 85 86 88 90 93 95 99 100
3 2 4 5 9 13 15 16 18 24 25 28 29 31 33 34 35 37 38 44 46 47 48 53 54 55 56 57 58 60 62 63 65 67 71 73 76 78 80 82 83 87 89 91 92 94 96 97 98
EOF